Test: battleship-14-26-sat.cnf
Options: -no-inverting-opt -sym-usage-var-bump
WARNING: for repeatability, setting FPU to use double precision
============================[ Problem Statistics ]=============================
|                                                                             |
|  Number of symmetries:           17                                         |
|  Number of invertingSyms:         0                                         |
|  Number of variables:           364                                         |
|  Number of clauses:            2562                                         |
|  Parse time:                   0.00 s                                       |
|                                                                             |
============================[ Search Statistics ]==============================
| Conflicts |          ORIGINAL         |          LEARNT          | Progress |
|           |    Vars  Clauses Literals |    Limit  Clauses Lit/Cl |          |
===============================================================================
|       100 |     364     2562     9828 |      939      135    189 |  0.001 % |
|       250 |     364     2562     9828 |     1033      297    138 |  0.001 % |
|       475 |     364     2562     9828 |     1136      583    131 |  0.001 % |
|       812 |     364     2562     9828 |     1250      980    131 |  0.001 % |
|      1318 |     364     2562     9828 |     1375      875    129 |  0.001 % |
|      2077 |     364     2562     9828 |     1512     1151    118 |  0.001 % |
|      3216 |     364     2562     9828 |     1664     1725    141 |  0.001 % |
|      4924 |     364     2562     9828 |     1830     1064    115 |  0.001 % |
|      7486 |     364     2562     9828 |     2013     1066    132 |  0.001 % |
|     11330 |     364     2562     9828 |     2215     1483    135 |  0.001 % |
|     17096 |     364     2562     9828 |     2436     1336    133 |  0.001 % |
|     25745 |     364     2562     9828 |     2680     1519    137 |  0.001 % |
|     38719 |     364     2562     9828 |     2948     1703    125 |  0.001 % |
|     58180 |     364     2562     9828 |     3243     1992    124 |  0.001 % |
|     87372 |     364     2562     9828 |     3567     2084    150 |  0.001 % |
|    131161 |     364     2562     9828 |     3924     2712    139 |  0.001 % |
|    196845 |     364     2562     9828 |     4316     3752    148 |  0.001 % |
|    295371 |     364     2562     9828 |     4748     3024    168 |  0.001 % |
|    443160 |     364     2562     9828 |     5222     3634    151 |  0.001 % |
|    664843 |     364     2562     9828 |     5745     4795    139 |  0.001 % |
|    997368 |     364     2562     9828 |     6319     4886    149 |  0.001 % |
|   1496156 |     364     2562     9828 |     6951     4871    138 |  0.001 % |
|   2244338 |     364     2562     9828 |     7646     6054    167 |  0.001 % |
|   3366612 |     364     2562     9828 |     8411     5193    152 |  0.001 % |
===============================================================================
restarts              : 7676
conflicts             : 4328031        (16624 /sec)
symconflicts          : 205403         (789 /sec)
decisions             : 7994975        (0.00 % random) (30709 /sec)
propagations          : 102396310      (393311 /sec)
sympropagations       : 831636         (3194 /sec)
conflict literals     : 690199068      (5.48 % deleted)
literals     : 690199068      (5.48 % deleted)

HEURISTIC USAGES
random                : 0           
activity w/ lookahead : 0           
activity no lookahead : 0           
original sp           : 7994974     
sym count             : 0           

Memory used           : 30.00 MB
CPU time              : 260.344 s

SATISFIABLE
